instances/in_60_30_10_4.lp
#const n = 60.
#const k = 30.
#const h = 10.
tile(1,24,14).
tile(2,16,22).
tile(3,25,17).
tile(4,21,25).
tile(5,19,17).
tile(6,14,21).
tile(7,25,19).
tile(8,29,3).
tile(9,17,1).
tile(10,24,26).
tile(11,20,18).
tile(12,16,22).
tile(13,10,22).
tile(14,12,29).
tile(15,20,19).
tile(16,17,17).
tile(17,26,19).
tile(18,24,28).
tile(19,14,11).
tile(20,8,16).
tile(21,10,4).
tile(22,6,21).
tile(23,23,16).
tile(24,24,9).
tile(25,28,28).
tile(26,24,2).
tile(27,7,30).
tile(28,24,16).
tile(29,25,20).
tile(30,4,27).
tile(31,3,19).
tile(32,2,2).
tile(33,8,6).
tile(34,6,21).
tile(35,16,7).
tile(36,15,28).
tile(37,30,20).
tile(38,29,7).
tile(39,12,29).
tile(40,10,29).
tile(41,1,17).
tile(42,20,2).
tile(43,1,20).
tile(44,13,23).
tile(45,29,10).
tile(46,20,5).
tile(47,19,9).
tile(48,24,9).
tile(49,30,10).
tile(50,2,25).
tile(51,6,9).
tile(52,20,1).
tile(53,20,29).
tile(54,30,12).
tile(55,21,15).
tile(56,5,15).
tile(57,28,13).
tile(58,11,19).
tile(59,26,20).
tile(60,22,18).
