minizinc/input/in_60_30_10_4.dzn
n = 60;
k = 30;
h = 10;
tiles = array2d(1..n, 1..2,
[ 24,14
, 16,22
, 25,17
, 21,25
, 19,17
, 14,21
, 25,19
, 29,3
, 17,1
, 24,26
, 20,18
, 16,22
, 10,22
, 12,29
, 20,19
, 17,17
, 26,19
, 24,28
, 14,11
, 8,16
, 10,4
, 6,21
, 23,16
, 24,9
, 28,28
, 24,2
, 7,30
, 24,16
, 25,20
, 4,27
, 3,19
, 2,2
, 8,6
, 6,21
, 16,7
, 15,28
, 30,20
, 29,7
, 12,29
, 10,29
, 1,17
, 20,2
, 1,20
, 13,23
, 29,10
, 20,5
, 19,9
, 24,9
, 30,10
, 2,25
, 6,9
, 20,1
, 20,29
, 30,12
, 21,15
, 5,15
, 28,13
, 11,19
, 26,20
, 22,18
]);